c colouring generated by benchmark framework
p edge 121 1980
v 1 0
v 2 1
v 3 3
v 4 10
v 5 6
v 6 11
v 7 12
v 8 14
v 9 8
v 10 13
v 11 4
v 12 2
v 13 12
v 14 13
v 15 11
v 16 3
v 17 4
v 18 1
v 19 5
v 20 9
v 21 7
v 22 6
v 23 11
v 24 14
v 25 4
v 26 7
v 27 8
v 28 5
v 29 2
v 30 6
v 31 1
v 32 10
v 33 0
v 34 6
v 35 13
v 36 10
v 37 14
v 38 9
v 39 0
v 40 7
v 41 3
v 42 2
v 43 4
v 44 1
v 45 12
v 46 5
v 47 2
v 48 0
v 49 10
v 50 8
v 51 14
v 52 13
v 53 7
v 54 3
v 55 9
v 56 9
v 57 11
v 58 8
v 59 1
v 60 5
v 61 6
v 62 3
v 63 10
v 64 0
v 65 14
v 66 12
v 67 10
v 68 6
v 69 7
v 70 3
v 71 0
v 72 1
v 73 5
v 74 2
v 75 4
v 76 9
v 77 8
v 78 7
v 79 9
v 80 0
v 81 2
v 82 4
v 83 3
v 84 6
v 85 1
v 86 5
v 87 12
v 88 14
v 89 4
v 90 2
v 91 11
v 92 5
v 93 1
v 94 9
v 95 8
v 96 7
v 97 3
v 98 0
v 99 13
v 100 1
v 101 8
v 102 9
v 103 6
v 104 7
v 105 10
v 106 0
v 107 4
v 108 12
v 109 2
v 110 11
v 111 13
v 112 0
v 113 14
v 114 4
v 115 12
v 116 2
v 117 9
v 118 11
v 119 6
v 120 8
v 121 7
